7973
18, 31, 22, 1, 49, 32, 45, 19, 41, 8, 10, 9, 43, 33, 51, 11, 52, 13, 14, 47, 26, 28, 27, 12, 25, 4, 6, 15, 5, 24, 48, 37, 38, 40, 39, 36, 34, 35, 46, 44, 16, 50, 20, 23, 29, 30, 2, 7, 42, 21, 17, 3
